Version identifier: 20.1.0.0 | 2020-11-10 | 9bedb6d68
CPXPARAM_Threads                                 1
CPXPARAM_TimeLimit                               7200
CPXPARAM_MIP_Tolerances_MIPGap                   0
Generic callback                                 0x60
1 of 1 MIP starts provided solutions.
MIP start 'm1' defined initial solution with objective 2173.8405.
Tried aggregator 1 time.
Reduced MIP has 1 rows, 1001 columns, and 1000 nonzeros.
Reduced MIP has 1000 binaries, 0 generals, 0 SOSs, and 0 indicators.
Presolve time = 0.00 sec. (0.30 ticks)
Probing time = 0.00 sec. (0.11 ticks)
Tried aggregator 1 time.
Reduced MIP has 1 rows, 1001 columns, and 1000 nonzeros.
Reduced MIP has 1000 binaries, 0 generals, 0 SOSs, and 0 indicators.
Presolve time = 0.00 sec. (0.31 ticks)
Probing time = 0.00 sec. (0.11 ticks)
MIP emphasis: balance optimality and feasibility.
MIP search method: dynamic search.
Parallel mode: none, using 1 thread.
Root relaxation solution time = 0.00 sec. (0.21 ticks)

        Nodes                                         Cuts/
   Node  Left     Objective  IInf  Best Integer    Best Bound    ItCnt     Gap

*     0+    0                         2173.8405     4368.0000           100.93%
      0     0     3039.1023     2     2173.8405     4368.0000        0  100.93%
      0     0     2714.0499     4     2173.8405 UserPurge2: 1       14   24.85%
      0     0     2433.0291     5     2173.8405 UserPurge2: 1       26   11.92%
      0     0     2403.1930     7     2173.8405 UserPurge2: 1       37   10.55%
      0     0     2386.5312     7     2173.8405 UserPurge2: 1       47    9.78%
      0     0     2372.3759     8     2173.8405 UserPurge2: 1       67    9.13%
      0     0     2361.9123     9     2173.8405 UserPurge2: 1       76    8.65%
      0     0     2348.1299    10     2173.8405 UserPurge2: 1      103    8.02%
      0     0     2330.6041     8     2173.8405 UserPurge2: 1      115    7.21%
      0     0     2314.5287     8     2173.8405 UserPurge2: 1      136    6.47%
      0     0     2298.9948     6     2173.8405 UserPurge2: 1      152    5.76%
      0     0     2293.8872     7     2173.8405 UserPurge1: 1      153    5.52%
      0     0     2293.0491     9     2173.8405 UserPurge2: 1      159    5.48%
      0     0     2290.5122    10     2173.8405 UserPurge2: 1      177    5.37%
      0     0     2287.8133    10     2173.8405 UserPurge1: 1      178    5.24%
      0     0     2284.9395     9     2173.8405 UserPurge2: 1      193    5.11%
      0     0     2279.5885     9     2173.8405 UserPurge2: 1      217    4.86%
      0     0     2276.4654     9     2173.8405 UserPurge2: 1      233    4.72%
      0     0     2275.3423    10     2173.8405 UserPurge2: 1      244    4.67%
      0     0     2254.6639     8     2173.8405 UserPurge2: 1      280    3.72%
      0     0     2253.9013     7     2173.8405 UserPurge2: 1      285    3.68%
      0     0     2245.2789     7     2173.8405 UserPurge2: 1      297    3.29%
      0     0     2245.2304     9     2173.8405 UserPurge1: 1      298    3.28%
      0     0     2241.4980     7     2173.8405 UserPurge2: 1      313    3.11%
      0     0     2240.6739     8     2173.8405 UserPurge2: 1      321    3.07%
      0     0     2239.3387     8     2173.8405 UserPurge2: 1      334    3.01%
      0     0     2237.7659     8     2173.8405 UserPurge2: 1      349    2.94%
      0     0     2236.6238     8     2173.8405 UserPurge2: 1      356    2.89%
      0     0     2235.7554     9     2173.8405 UserPurge2: 1      368    2.85%
      0     0     2235.6133    10     2173.8405 UserPurge2: 1      377    2.84%
      0     0     2235.3935    11     2173.8405 UserPurge2: 1      382    2.83%
      0     0     2234.3842    11     2173.8405 UserPurge2: 1      399    2.79%
      0     0     2232.4840    11     2173.8405 UserPurge2: 1      416    2.70%
      0     0     2232.2060    12     2173.8405 UserPurge2: 1      423    2.68%
      0     0     2231.2383    12     2173.8405 UserPurge2: 1      436    2.64%
      0     0     2230.3059    11     2173.8405 UserPurge2: 1      449    2.60%
      0     0     2228.7012    12     2173.8405 UserPurge2: 1      465    2.52%
      0     0     2228.0512    13     2173.8405 UserPurge2: 1      475    2.49%
      0     0     2227.3045    13     2173.8405 UserPurge2: 1      490    2.46%
      0     0     2225.4069    13     2173.8405 UserPurge2: 1      505    2.37%
      0     0     2223.2494    12     2173.8405 UserPurge2: 1      521    2.27%
      0     0     2221.7408    13     2173.8405 UserPurge2: 1      538    2.20%
      0     0     2221.5387    14     2173.8405 UserPurge2: 1      547    2.19%
      0     0     2221.4144    15     2173.8405 UserPurge2: 1      553    2.19%
      0     0     2220.1210    14     2173.8405 UserPurge2: 1      581    2.13%
      0     0     2218.6234    13     2173.8405 UserPurge2: 1      607    2.06%
      0     0     2217.1991    13     2173.8405 UserPurge2: 1      631    1.99%
      0     0     2216.8593    14     2173.8405 UserPurge2: 1      641    1.98%
      0     0     2216.6571    15     2173.8405 UserPurge2: 1      650    1.97%
      0     0     2216.2491    16     2173.8405 UserPurge2: 1      663    1.95%
      0     0     2216.0096    17     2173.8405 UserPurge2: 1      674    1.94%
      0     0     2215.3095    18     2173.8405 UserPurge2: 1      690    1.91%
      0     0     2214.3657    18     2173.8405 UserPurge2: 1      720    1.86%
      0     0     2213.3115    17     2173.8405 UserPurge2: 1      753    1.82%
      0     0     2210.9318    16     2173.8405 UserPurge2: 1      782    1.71%
      0     0     2210.1992    16     2173.8405 UserPurge2: 1      814    1.67%
      0     0     2209.8516    14     2173.8405 UserPurge2: 1      827    1.66%
      0     0     2209.5607    15     2173.8405 UserPurge2: 1      843    1.64%
      0     0     2209.2061    16     2173.8405 UserPurge2: 1      865    1.63%
      0     0     2209.1082    17     2173.8405 UserPurge2: 1      870    1.62%
      0     0     2208.8497    18     2173.8405 UserPurge2: 1      884    1.61%
      0     0     2208.4980    18     2173.8405 UserPurge2: 1      905    1.59%
      0     0     2207.9334    18     2173.8405 UserPurge2: 1      923    1.57%
      0     0     2207.6082    19     2173.8405 UserPurge2: 1      950    1.55%
      0     0     2207.2950    18     2173.8405 UserPurge2: 1      967    1.54%
      0     0     2207.1849    19     2173.8405 UserPurge2: 1      978    1.53%
      0     0     2207.0136    20     2173.8405 UserPurge2: 1      999    1.53%
      0     0     2206.3977    20     2173.8405 UserPurge2: 1     1026    1.50%
      0     0     2206.1181    20     2173.8405 UserPurge2: 1     1041    1.48%
      0     0     2204.6286    19     2173.8405 UserPurge2: 1     1086    1.42%
      0     0     2203.9587    17     2173.8405 UserPurge2: 1     1104    1.39%
      0     0     2203.7700    17     2173.8405 UserPurge2: 1     1116    1.38%
      0     0     2203.5725    18     2173.8405 UserPurge2: 1     1128    1.37%
      0     0     2203.0067    17     2173.8405 UserPurge2: 1     1145    1.34%
      0     0     2202.6859    18     2173.8405 UserPurge2: 1     1154    1.33%
      0     0     2202.5424    18     2173.8405 UserPurge2: 1     1164    1.32%
      0     0     2202.3303    19     2173.8405 UserPurge2: 1     1179    1.31%
      0     0     2202.1700    20     2173.8405 UserPurge2: 1     1193    1.30%
      0     0     2201.7644    19     2173.8405 UserPurge2: 1     1208    1.28%
*     0+    0                         2177.4294     2201.7644             1.12%
      0     2     2201.7644    19     2177.4294     2201.7546     1208    1.12%
Elapsed time = 23.36 sec. (396.68 ticks, tree = 0.01 MB, solutions = 2)
*     1     1      integral     0     2184.0000     2201.6820    10987    0.81%
      2     0        cutoff           2184.0000     2184.0000    11411    0.00%

User cuts applied:  602

Root node processing (before b&c):
  Real time             =   23.36 sec. (398.38 ticks)
Sequential b&c:
  Real time             =   36.91 sec. (5402.26 ticks)
                          ------------
Total (root+branch&cut) =   60.28 sec. (5800.65 ticks)
@Parameters: 
is_S_cut                                true
is_add_all_yinF                         true
is_start_value                          true
is_usercut                              true
is_visualization                        false
uc_only_rootnode                        false

data                                    Qi
fn                                      data/Qi/instance_800_1000.csv
mode                                    NewSubmodular
solver                                  cplex

p                                       5
r                                       5

EPS                                     1.0e-06
EPS_vio                                 1.0e-04
beta                                    0.10
gap                                     0.00
nodelimit                               Inf
timelimit                               7200.00


@PrintInfos
ItCnt: 11411
Current gap: 0.00 %
Termination Status: OPTIMAL
Primal Status: FEASIBLE_POINT
Solve Time: 60.28 sec
Objective Value: 2184.000000
Number of Nodes:      3

CutInfo: [phase] num / time (sec) 
ZLP             [phase1]     0 / 0.00 [rLC]     0 / 0.00 [rUC]     0 / 0.00 [sLC]     0 / 0.00 [sUC]     0 / 0.00 
OldSubmodular   [phase1]     0 / 0.00 [rLC]     0 / 0.00 [rUC]     0 / 0.00 [sLC]     0 / 0.00 [sUC]     0 / 0.00 
NewSubmodular   [phase1]     0 / 0.00 [rLC]    43 / 16.02 [rUC]    80 / 4.95 [sLC]     0 / 3.23 [sUC]   579 / 29.67 
PMP             [phase1]     0 / 0.00 [rLC]     4 / 12.79 [rUC]     0 / 0.00 [sLC]     1 / 3.22 [sUC]     0 / 0.00 
Separation Round: [phase1] 0  [rLC] 45  [rUC] 80  [sLC] 1  [sUC] 323
Root Best Bound 2184.000000
Root Best Integer: 2184.000000
Best Bound: 2184.000000
Best Integer: 2184.000000

